NAME : MM12_depots
COMMENT : Instance 12 in MD algorithm. Coordinates of depots and vhcl speeds given.
TYPE : TSP
DIMENSION : 15
EDGE_WEIGHT_TYPE : ATT
NODE_COORD_SECTION
101 79.2328 89.5452 1
102 65.4914 31.7236 1
103 39.5365 95.5817 1
104 34.0986 8.7049 1
105 19.3701 56.3395 1
106 17.7701 86.8037 1
107 33.4280 12.8627 1
108 96.7222 91.5623 1
109 15.8952 51.3489 1
110 12.1682 11.7241 1
111 87.2591 8.6689 1
112 9.7448 94.3246 1
113 40.1110 54.9028 1
114 77.7212 51.7343 1
115 30.5305 18.7454 1
EOF
